\ This file has been generated by DOcplex
\ ENCODING=ISO-8859-1
\Problem name: DLP model without alternatives

Maximize
 obj: 0.465426000000 h_0_1 + 0.859248000000 h_1_1 + 0.310284000000 h_2_1
      + 0.572832000000 h_3_1 + 0.140343840000 h_4_1 + 0.259096320000 h_5_1
      + 0.093562560000 h_6_1 + 0.172730880000 h_7_1 + 0.110270160000 h_8_1
      + 0.203575680000 h_9_1 + 0.073513440000 h_10_1 + 0.135717120000 h_11_1
      + 0.393822000000 h_12_1 + 0.727056000000 h_13_1 + 0.262548000000 h_14_1
      + 0.484704000000 h_15_1 + 0.477360000000 h_16_1 + 0.881280000000 h_17_1
      + 0.318240000000 h_18_1 + 0.587520000000 h_19_1 + 0.322218000000 h_20_1
      + 0.594864000000 h_21_1 + 0.214812000000 h_22_1 + 0.396576000000 h_23_1
      + 0.085924800000 h_24_1 + 0.158630400000 h_25_1 + 0.057283200000 h_26_1
      + 0.105753600000 h_27_1 + 0.128887200000 h_28_1 + 0.237945600000 h_29_1
      + 0.085924800000 h_30_1 + 0.158630400000 h_31_1 + 0.262548000000 h_32_1
      + 0.484704000000 h_33_1 + 0.175032000000 h_34_1 + 0.323136000000 h_35_1
      - 5 z_0_0 - 5 z_0_1 - 5 z_1_0 - 5 z_1_1 - 5 z_2_0 - 5 z_2_1
Subject To
 time_cons1: h_0_0 + h_0_1 = 3
 time_cons2: h_1_0 + h_1_1 = 3
 time_cons3: h_2_0 + h_2_1 = 6
 time_cons4: h_3_0 + h_3_1 = 6
 time_cons5: h_4_0 + h_4_1 = 3
 time_cons6: h_5_0 + h_5_1 = 3
 time_cons7: h_6_0 + h_6_1 = 6
 time_cons8: h_7_0 + h_7_1 = 6
 time_cons9: h_8_0 + h_8_1 = 3
 time_cons10: h_9_0 + h_9_1 = 3
 time_cons11: h_10_0 + h_10_1 = 6
 time_cons12: h_11_0 + h_11_1 = 6
 time_cons13: h_12_0 + h_12_1 = 3
 time_cons14: h_13_0 + h_13_1 = 3
 time_cons15: h_14_0 + h_14_1 = 6
 time_cons16: h_15_0 + h_15_1 = 6
 time_cons17: h_16_0 + h_16_1 = 3
 time_cons18: h_17_0 + h_17_1 = 3
 time_cons19: h_18_0 + h_18_1 = 6
 time_cons20: h_19_0 + h_19_1 = 6
 time_cons21: h_20_0 + h_20_1 = 3
 time_cons22: h_21_0 + h_21_1 = 3
 time_cons23: h_22_0 + h_22_1 = 6
 time_cons24: h_23_0 + h_23_1 = 6
 time_cons25: h_24_0 + h_24_1 = 3
 time_cons26: h_25_0 + h_25_1 = 3
 time_cons27: h_26_0 + h_26_1 = 6
 time_cons28: h_27_0 + h_27_1 = 6
 time_cons29: h_28_0 + h_28_1 = 3
 time_cons30: h_29_0 + h_29_1 = 3
 time_cons31: h_30_0 + h_30_1 = 6
 time_cons32: h_31_0 + h_31_1 = 6
 time_cons33: h_32_0 + h_32_1 = 3
 time_cons34: h_33_0 + h_33_1 = 3
 time_cons35: h_34_0 + h_34_1 = 6
 time_cons36: h_35_0 + h_35_1 = 6
 capacity_cons1: 0.054756000000 h_0_1 + 0.050544000000 h_1_1
                 + 0.016511040000 h_4_1 + 0.015240960000 h_5_1
                 + 0.012972960000 h_8_1 + 0.011975040000 h_9_1 + y_0_0 = 1
 capacity_cons2: 0.046332000000 h_12_1 + 0.042768000000 h_13_1
                 + 0.056160000000 h_16_1 + 0.051840000000 h_17_1
                 + 0.037908000000 h_20_1 + 0.034992000000 h_21_1 + y_1_0 = 1
 capacity_cons3: 0.010108800000 h_24_1 + 0.009331200000 h_25_1
                 + 0.015163200000 h_28_1 + 0.013996800000 h_29_1
                 + 0.030888000000 h_32_1 + 0.028512000000 h_33_1 + y_2_0 = 1
 capacity_cons4: 0.050544000000 h_1_1 + 0.036504000000 h_2_1
                 + 0.033696000000 h_3_1 + 0.016511040000 h_4_1
                 + 0.015240960000 h_5_1 + 0.011007360000 h_6_1
                 + 0.010160640000 h_7_1 + 0.012972960000 h_8_1
                 + 0.011975040000 h_9_1 + 0.008648640000 h_10_1
                 + 0.007983360000 h_11_1 - 0.046332000000 h_12_1
                 - 0.010108800000 h_24_1 + y_0_1 = 1
 capacity_cons5: - 0.016511040000 h_4_1 + 0.046332000000 h_12_1
                 + 0.042768000000 h_13_1 + 0.030888000000 h_14_1
                 + 0.028512000000 h_15_1 + 0.051840000000 h_17_1
                 + 0.037440000000 h_18_1 + 0.034560000000 h_19_1
                 + 0.037908000000 h_20_1 + 0.034992000000 h_21_1
                 + 0.025272000000 h_22_1 + 0.023328000000 h_23_1
                 - 0.015163200000 h_28_1 + y_1_1 = 1
 capacity_cons6: - 0.012972960000 h_8_1 - 0.037908000000 h_20_1
                 + 0.010108800000 h_24_1 + 0.009331200000 h_25_1
                 + 0.006739200000 h_26_1 + 0.006220800000 h_27_1
                 + 0.015163200000 h_28_1 + 0.013996800000 h_29_1
                 + 0.010108800000 h_30_1 + 0.009331200000 h_31_1
                 + 0.028512000000 h_33_1 + 0.020592000000 h_34_1
                 + 0.019008000000 h_35_1 + y_2_1 = 1
 parking_cons1: y_0_0 - z_0_0 <= 1
 parking_cons2: y_1_0 - z_1_0 <= 3
 parking_cons3: y_2_0 - z_2_0 <= 1
 parking_cons4: y_0_1 - z_0_1 <= 1
 parking_cons5: y_1_1 - z_1_1 <= 3
 parking_cons6: y_2_1 - z_2_1 <= 1

Bounds
End
